5

0   25   3   18   19
25   0   1   5   22
3   1   0   15   18
18   5   15   0   1
19   22   18   1   0

0   41   21   40   28
41   0   20   81   69
21   20   0   61   49
40   81   61   0   12
28   69   49  12   0